19 200
0 0 250 250 0 0 1824 0 0 0
1 183 248 251 20 0 1732 90 0 143
2 800 225 196 10 128 174 90 0 211
3 374 123 155 10 0 1576 90 0 159
4 418 117 152 20 0 1569 90 0 291
5 953 116 152 20 678 750 90 0 593
6 560 116 151 20 774 836 90 0 562
7 131 116 156 10 0 1571 90 0 148
8 57 118 157 20 0 1573 0 0 1001
9 498 236 247 20 0 1720 0 0 1021
10 143 205 223 -20 0 1682 90 183 0
11 211 224 192 -10 215 274 90 800 0
12 159 118 153 -10 0 1571 90 374 0
13 291 120 159 -20 0 1576 90 418 0
14 593 113 156 -20 0 1568 90 953 0
15 562 123 159 -20 0 1578 90 560 0
16 148 121 157 -10 0 1575 90 131 0
17 1001 118 157 -20 0 1573 90 57 0
18 1021 236 247 -20 0 1720 90 498 0

